
  32    1
  10

   0   0  10 2 3 4 5 6 9 10 13 14 15 
   8   1   7 31 28 21 18 16 11 7 
   3   2   7 31 30 28 19 18 12 8 
   9   1   6 28 23 21 19 18 7 
   6   3   8 31 29 28 27 26 18 16 11 
   5   2   7 29 28 26 23 22 20 17 
   1   2   6 30 27 26 25 22 17 
   1   1   4 25 24 22 16 
   4   3   4 29 24 23 20 
   2   3   4 29 25 22 16 
   1   2   4 25 24 23 22 
   6   1   4 27 24 23 22 
   7   1   3 23 22 17 
   7   3   3 24 23 22 
   9   2   2 25 23 
   1   4   1 23 
   1   3   1 24 
   2   2   1 22 
   6   1   1 26 
   1   2   1 25 
   6   3   1 22 
   6   1   1 32
   8   1   1 32
   6   5   1 32
   2   3   1 32
   1   2   1 32
   1   1   1 32
   8   1   1 32
   7   1   1 32
   9   2   1 32
   6   1   1 32
   0   0   0 
